10 - 50 - 276.94
10 - 500 - 2262.93
10 - 5000 - 21530.7
15 - 50 - 249.67
15 - 500 - 2981.17
15 - 5000 - 32144.2
20 - 50 - 350.66
20 - 500 - 3914.31
20 - 5000 - 42104.3
25 - 50 - 389.88
25 - 500 - 4584.88
25 - 5000 - 52674.6
30 - 50 - 449.88
30 - 500 - 5248.44
30 - 5000 - 63114.3
